squfl010-080.py
Ipopt 3.12.8: 
==> Warning: Treating 10 binary and 0 integer variables as continous.


******************************************************************************
This program contains Ipopt, a library for large-scale nonlinear optimization.
 Ipopt is released as open source code under the Eclipse Public License (EPL).
         For more information visit http://projects.coin-or.org/Ipopt
******************************************************************************

This is Ipopt version 3.12.8, running with linear solver ma27.

Number of nonzeros in equality constraint Jacobian...:      800
Number of nonzeros in inequality constraint Jacobian.:     1600
Number of nonzeros in Lagrangian Hessian.............:      800

Total number of variables............................:      810
                     variables with only lower bounds:      800
                variables with lower and upper bounds:       10
                     variables with only upper bounds:        0
Total number of equality constraints.................:       80
Total number of inequality constraints...............:      800
        inequality constraints with only lower bounds:        0
   inequality constraints with lower and upper bounds:        0
        inequality constraints with only upper bounds:      800

iter    objective    inf_pr   inf_du lg(mu)  ||d||  lg(rg) alpha_du alpha_pr  ls
   0  8.4489758e+00 9.00e-01 1.62e+00  -1.0 0.00e+00    -  0.00e+00 0.00e+00   0
   1  3.2201208e+02 3.33e-16 1.05e+01  -1.0 2.11e-01    -  8.19e-02 1.00e+00f  1
   2  3.0387314e+02 2.22e-16 4.46e+00  -1.0 1.71e-01    -  7.45e-01 5.90e-01f  1
   3  3.1243504e+02 4.44e-16 6.43e-01  -1.0 2.64e-01    -  7.11e-01 1.00e+00f  1
   4  2.8115802e+02 2.22e-16 3.05e-01  -1.7 1.58e-01    -  8.51e-01 6.72e-01f  1
   5  2.6930209e+02 2.22e-16 7.07e-02  -1.7 1.17e-01    -  1.00e+00 9.50e-01f  1
   6  2.6511888e+02 2.22e-16 6.38e-01  -2.5 1.55e-01    -  9.08e-01 4.20e-01f  1
   7  2.6185899e+02 2.22e-16 4.92e-01  -2.5 8.99e-02    -  1.00e+00 5.94e-01f  1
   8  2.5993869e+02 2.22e-16 2.83e-08  -2.5 3.78e-02    -  1.00e+00 1.00e+00f  1
   9  2.5940516e+02 2.22e-16 2.69e-01  -3.8 2.85e-02    -  9.99e-01 4.99e-01f  1
iter    objective    inf_pr   inf_du lg(mu)  ||d||  lg(rg) alpha_du alpha_pr  ls
  10  2.5913976e+02 2.22e-16 1.53e-01  -3.8 1.71e-02    -  1.00e+00 5.40e-01f  1
  11  2.5894892e+02 2.22e-16 1.37e-03  -3.8 7.95e-03    -  1.00e+00 9.95e-01f  1
  12  2.5891039e+02 3.33e-16 8.97e-03  -5.7 2.87e-03    -  1.00e+00 8.77e-01f  1
  13  2.5890530e+02 2.22e-16 1.85e-11  -5.7 1.05e-03    -  1.00e+00 1.00e+00f  1
  14  2.5890475e+02 2.22e-16 5.18e-05  -8.6 3.84e-04    -  9.97e-01 9.94e-01f  1
  15  2.5890474e+02 3.33e-16 6.92e-14  -8.6 1.73e-04    -  1.00e+00 1.00e+00f  1
  16  2.5890474e+02 3.33e-16 7.84e-14  -8.6 7.42e-05    -  1.00e+00 1.00e+00f  1
  17  2.5890474e+02 3.33e-16 2.70e-14  -8.6 2.24e-05    -  1.00e+00 1.00e+00h  1
  18  2.5890474e+02 3.33e-16 6.67e-14  -9.0 2.76e-06    -  1.00e+00 1.00e+00f  1

Number of Iterations....: 18

                                   (scaled)                 (unscaled)
Objective...............:   2.5890474102838095e+02    2.5890474102838095e+02
Dual infeasibility......:   6.6695180313215890e-14    6.6695180313215890e-14
Constraint violation....:   3.3306690738754696e-16    3.3306690738754696e-16
Complementarity.........:   1.1466112772537485e-09    1.1466112772537485e-09
Overall NLP error.......:   1.1466112772537485e-09    1.1466112772537485e-09


Number of objective function evaluations             = 19
Number of objective gradient evaluations             = 19
Number of equality constraint evaluations            = 19
Number of inequality constraint evaluations          = 19
Number of equality constraint Jacobian evaluations   = 19
Number of inequality constraint Jacobian evaluations = 19
Number of Lagrangian Hessian evaluations             = 18
Total CPU secs in IPOPT (w/o function evaluations)   =      0.040
Total CPU secs in NLP function evaluations           =      0.004

EXIT: Optimal Solution Found.

Time elapsed: 0.224263906479